(set-logic HORN)
(set-info :source |
    Benchmark: C_VC
    Output by Princess (http://www.philipp.ruemmer.org/princess.shtml)
|)
(set-info :status unsat)
(declare-fun inv_main26 (Int Int Int Int Int Int Int Int Int) Bool)
(declare-fun inv_main27 (Int Int Int Int Int Int Int Int Int) Bool)
(declare-fun inv_main36 (Int Int Int Int Int Int Int Int Int Int Int) Bool)
(declare-fun inv_main4 (Int Int Int Int Int Int Int Int Int) Bool)
(declare-fun inv_main48 (Int Int Int Int Int Int Int Int Int Int Int Int Int) Bool)
(declare-fun inv_main51 (Int Int Int Int Int Int Int Int Int Int Int Int Int) Bool)
(declare-fun inv_main52 (Int Int Int Int Int Int Int Int Int Int Int Int Int) Bool)
(declare-fun inv_main53 (Int Int Int Int Int Int Int Int Int Int Int Int Int) Bool)
(assert (forall ((var0 Int) (var1 Int) (var2 Int) (var3 Int) (var4 Int) (var5 Int) (var6 Int) (var7 Int)) (inv_main4 0 var7 var6 var5 var4 var3 var2 var1 var0)))
(assert (forall ((var0 Int) (var1 Int) (var2 Int) (var3 Int) (var4 Int) (var5 Int) (var6 Int) (var7 Int) (var8 Int) (var9 Int) (var10 Int) (var11 Int) (var12 Int) (var13 Int) (var14 Int) (var15 Int) (var16 Int) (var17 Int) (var18 Int) (var19 Int) (var20 Int) (var21 Int) (var22 Int)) (or (not (and (inv_main36 var22 var21 var20 var19 var18 var17 var16 var15 var14 var13 var12) (and (and (and (and (and (and (and (and (and (and (and (and (= var11 (+ var22 1)) (= var10 var21)) (= var9 var20)) (= var8 var18)) (= var7 var13)) (= var6 var16)) (= var5 (+ var17 (* (- 1) (* var16 var12))))) (= var4 var15)) (= var3 var14)) (= var2 var13)) (= var1 var12)) (= var0 var17)) (not (<= 0 (+ (+ 20 (* (- 1) var22)) (- 1))))))) (inv_main26 var11 var10 var9 var8 var7 var6 var5 var3 (+ var4 (* (- 1) (* var3 var1)))))))
(assert (forall ((var0 Int) (var1 Int) (var2 Int) (var3 Int) (var4 Int) (var5 Int) (var6 Int) (var7 Int) (var8 Int) (var9 Int) (var10 Int) (var11 Int) (var12 Int) (var13 Int) (var14 Int) (var15 Int) (var16 Int) (var17 Int) (var18 Int) (var19 Int) (var20 Int) (var21 Int) (var22 Int)) (or (not (and (inv_main36 var22 var21 var20 var19 var18 var17 var16 var15 var14 var13 var12) (and (and (and (and (and (and (and (and (and (and (and (and (= var11 (+ var22 1)) (= var10 var21)) (= var9 var20)) (= var8 var18)) (= var7 var13)) (= var6 var16)) (= var5 (+ var17 (* (- 1) (* var16 var12))))) (= var4 var15)) (= var3 var14)) (= var2 var13)) (= var1 var12)) (= var0 var17)) (and (not (<= 0 (+ var13 (* (- 1) var18)))) (<= 0 (+ (+ 20 (* (- 1) var22)) (- 1))))))) (inv_main26 var11 var10 var9 var8 var7 var6 var5 var3 (+ var4 (* (- 1) (* var3 var1)))))))
(assert (forall ((var0 Int) (var1 Int) (var2 Int) (var3 Int) (var4 Int) (var5 Int) (var6 Int) (var7 Int) (var8 Int) (var9 Int) (var10 Int) (var11 Int) (var12 Int) (var13 Int) (var14 Int) (var15 Int) (var16 Int) (var17 Int) (var18 Int) (var19 Int) (var20 Int) (var21 Int) (var22 Int) (var23 Int) (var24 Int) (var25 Int) (var26 Int) (var27 Int) (var28 Int) (var29 Int) (var30 Int)) (or (not (and (inv_main4 var30 var29 var28 var27 var26 var25 var24 var23 var22) (and (and (not (= var21 0)) (and (and (and (and (and (and (and (and (and (= var20 var19) (= var18 var17)) (= var16 var15)) (= var14 var13)) (= var12 var11)) (= var10 var9)) (= var8 var7)) (= var6 var5)) (= var4 var3)) (or (and (<= 0 (+ var15 (- 1))) (= var21 1)) (and (not (<= 0 (+ var15 (- 1)))) (= var21 0))))) (and (not (= var2 0)) (and (and (and (and (and (and (and (and (and (= var19 var30) (= var17 var1)) (= var15 var0)) (= var13 var27)) (= var11 var26)) (= var9 var25)) (= var7 var24)) (= var5 var23)) (= var3 var22)) (or (and (<= 0 (+ var1 (- 1))) (= var2 1)) (and (not (<= 0 (+ var1 (- 1)))) (= var2 0)))))))) (inv_main26 var20 var18 var16 var18 var16 1 0 0 1))))
(assert (forall ((var0 Int) (var1 Int) (var2 Int) (var3 Int) (var4 Int) (var5 Int) (var6 Int) (var7 Int) (var8 Int) (var9 Int) (var10 Int) (var11 Int) (var12 Int)) (or (not (inv_main48 var12 var11 var10 var9 var8 var7 var6 var5 var4 var3 var2 var1 var0)) (inv_main51 var12 var11 var10 var9 var8 var7 var6 var5 var4 var3 var2 var1 var0))))
(assert (forall ((var0 Int) (var1 Int) (var2 Int) (var3 Int) (var4 Int) (var5 Int) (var6 Int) (var7 Int) (var8 Int) (var9 Int) (var10 Int) (var11 Int) (var12 Int)) (or (not (inv_main51 var12 var11 var10 var9 var8 var7 var6 var5 var4 var3 var2 var1 var0)) (inv_main52 var12 var11 var10 var9 var8 var7 var6 var5 var4 var3 var2 var1 var0))))
(assert (forall ((var0 Int) (var1 Int) (var2 Int) (var3 Int) (var4 Int) (var5 Int) (var6 Int) (var7 Int) (var8 Int)) (or (not (and (inv_main26 var8 var7 var6 var5 var4 var3 var2 var1 var0) (not (<= 0 (+ (+ 20 (* (- 1) var8)) (- 1)))))) (inv_main27 (+ var8 1) var7 var6 var5 var4 var3 var2 var1 var0))))
(assert (forall ((var0 Int) (var1 Int) (var2 Int) (var3 Int) (var4 Int) (var5 Int) (var6 Int) (var7 Int) (var8 Int)) (or (not (and (inv_main26 var8 var7 var6 var5 var4 var3 var2 var1 var0) (and (= var4 0) (<= 0 (+ (+ 20 (* (- 1) var8)) (- 1)))))) (inv_main27 (+ var8 1) var7 var6 var5 var4 var3 var2 var1 var0))))
(assert (forall ((var0 Int) (var1 Int) (var2 Int) (var3 Int) (var4 Int) (var5 Int) (var6 Int) (var7 Int) (var8 Int) (var9 Int) (var10 Int) (var11 Int) (var12 Int)) (or (not (inv_main52 var12 var11 var10 var9 var8 var7 var6 var5 var4 var3 var2 var1 var0)) (inv_main53 var12 var11 var10 var9 var8 var7 var6 var5 var4 var3 var2 var1 var0))))
(assert (forall ((var0 Int) (var1 Int) (var2 Int) (var3 Int) (var4 Int) (var5 Int) (var6 Int) (var7 Int) (var8 Int) (var9 Int) (var10 Int) (var11 Int) (var12 Int)) (or (not (and (inv_main53 var12 var11 var10 var9 var8 var7 var6 var5 var4 var3 var2 var1 var0) (not (<= 0 (+ var3 (* (- 2) var0)))))) (inv_main36 var12 var11 var10 var9 var8 var7 var6 var5 var4 (+ var3 (* (- 1) var0)) (+ var2 var1)))))
(assert (forall ((var0 Int) (var1 Int) (var2 Int) (var3 Int) (var4 Int) (var5 Int) (var6 Int) (var7 Int) (var8 Int) (var9 Int) (var10 Int) (var11 Int) (var12 Int)) (or (not (and (inv_main53 var12 var11 var10 var9 var8 var7 var6 var5 var4 var3 var2 var1 var0) (and (not (<= 0 (+ (+ 20 (* (- 1) var12)) (- 1)))) (<= 0 (+ var3 (* (- 2) var0)))))) (inv_main36 (+ var12 1) var11 var10 var9 var8 var7 var6 var5 var4 (+ var3 (* (- 2) var0)) (+ var2 (* 2 var1))))))
(assert (forall ((var0 Int) (var1 Int) (var2 Int) (var3 Int) (var4 Int) (var5 Int) (var6 Int) (var7 Int) (var8 Int) (var9 Int) (var10 Int)) (or (not (and (inv_main36 var10 var9 var8 var7 var6 var5 var4 var3 var2 var1 var0) (and (not (<= 0 (+ (+ 20 (* (- 1) (+ var10 1))) (- 1)))) (and (<= 0 (+ var1 (* (- 1) var6))) (<= 0 (+ (+ 20 (* (- 1) var10)) (- 1))))))) (inv_main36 (+ (+ var10 1) 1) var9 var8 var7 var6 var5 var4 var3 var2 (+ var1 (* (- 1) var6)) (+ var0 1)))))
(assert (forall ((var0 Int) (var1 Int) (var2 Int) (var3 Int) (var4 Int) (var5 Int) (var6 Int) (var7 Int) (var8 Int)) (or (not (and (inv_main26 var8 var7 var6 var5 var4 var3 var2 var1 var0) (and (not (= var4 0)) (<= 0 (+ (+ 20 (* (- 1) var8)) (- 1)))))) (inv_main36 (+ var8 1) var7 var6 var5 var4 var3 var2 var1 var0 var5 0))))
(assert (forall ((var0 Int) (var1 Int) (var2 Int) (var3 Int) (var4 Int) (var5 Int) (var6 Int) (var7 Int) (var8 Int) (var9 Int) (var10 Int) (var11 Int) (var12 Int)) (or (not (and (inv_main53 var12 var11 var10 var9 var8 var7 var6 var5 var4 var3 var2 var1 var0) (and (<= 0 (+ (+ 20 (* (- 1) var12)) (- 1))) (<= 0 (+ var3 (* (- 2) var0)))))) (inv_main48 (+ var12 1) var11 var10 var9 var8 var7 var6 var5 var4 var3 var2 (* 2 var1) (* 2 var0)))))
(assert (forall ((var0 Int) (var1 Int) (var2 Int) (var3 Int) (var4 Int) (var5 Int) (var6 Int) (var7 Int) (var8 Int) (var9 Int) (var10 Int)) (or (not (and (inv_main36 var10 var9 var8 var7 var6 var5 var4 var3 var2 var1 var0) (and (<= 0 (+ (+ 20 (* (- 1) (+ var10 1))) (- 1))) (and (<= 0 (+ var1 (* (- 1) var6))) (<= 0 (+ (+ 20 (* (- 1) var10)) (- 1))))))) (inv_main48 (+ (+ var10 1) 1) var9 var8 var7 var6 var5 var4 var3 var2 var1 var0 1 var6))))
(assert (forall ((var0 Int) (var1 Int) (var2 Int) (var3 Int) (var4 Int) (var5 Int) (var6 Int) (var7 Int) (var8 Int) (var9 Int) (var10 Int) (var11 Int) (var12 Int)) (not (and (inv_main48 var12 var11 var10 var9 var8 var7 var6 var5 var4 var3 var2 var1 var0) (not (= var9 (+ (* var10 var5) (* var11 var7))))))))
(assert (forall ((var0 Int) (var1 Int) (var2 Int) (var3 Int) (var4 Int) (var5 Int) (var6 Int) (var7 Int) (var8 Int) (var9 Int) (var10 Int) (var11 Int) (var12 Int)) (not (and (inv_main51 var12 var11 var10 var9 var8 var7 var6 var5 var4 var3 var2 var1 var0) (not (= var8 (+ (* var11 var6) (* var10 var4))))))))
(assert (forall ((var0 Int) (var1 Int) (var2 Int) (var3 Int) (var4 Int) (var5 Int) (var6 Int) (var7 Int) (var8 Int) (var9 Int) (var10 Int) (var11 Int) (var12 Int)) (not (and (inv_main52 var12 var11 var10 var9 var8 var7 var6 var5 var4 var3 var2 var1 var0) (not (= var9 (+ (* var2 var8) var3)))))))
(assert (forall ((var0 Int) (var1 Int) (var2 Int) (var3 Int) (var4 Int) (var5 Int) (var6 Int) (var7 Int) (var8 Int) (var9 Int) (var10 Int) (var11 Int) (var12 Int)) (not (and (inv_main53 var12 var11 var10 var9 var8 var7 var6 var5 var4 var3 var2 var1 var0) (not (= var0 (* var8 var1)))))))
(assert (forall ((var0 Int) (var1 Int) (var2 Int) (var3 Int) (var4 Int) (var5 Int) (var6 Int) (var7 Int) (var8 Int)) (not (and (inv_main27 var8 var7 var6 var5 var4 var3 var2 var1 var0) (not (= (+ (+ (+ (* var3 var7) (* (- 1) (* var2 var7))) (* var1 var6)) (* (- 1) (* var0 var6))) var5))))))
(check-sat)
